p edge 35 64
e 1 4
e 1 5
e 1 8
e 1 10
e 1 14
e 1 16
e 1 17
e 1 23
e 1 24
e 1 33
e 2 3
e 2 4
e 2 8
e 2 19
e 2 27
e 3 4
e 3 8
e 3 19
e 3 24
e 3 27
e 3 30
e 4 5
e 4 8
e 4 24
e 4 30
e 5 7
e 5 11
e 5 12
e 6 8
e 6 14
e 6 18
e 7 11
e 7 12
e 7 13
e 7 17
e 8 17
e 8 19
e 8 27
e 9 21
e 9 26
e 9 28
e 9 32
e 10 16
e 10 23
e 12 13
e 12 17
e 12 21
e 12 28
e 12 34
e 13 17
e 14 33
e 15 22
e 16 23
e 19 27
e 20 22
e 20 25
e 20 29
e 21 28
e 21 34
e 22 25
e 24 30
e 25 35
e 28 34
e 29 31
